Strategies:  

WARNING: for repeatability, setting FPU to use double precision


Strategies: -b -p  

WARNING: for repeatability, setting FPU to use double precision
============================[ Problem Statistics ]=============================
|                                                                             |
|  Number of variables:           999                                         |
|  Number of clauses:          338580                                         |
|  Parse time:                   0.24 s                                       |
|  Eliminated clauses:           0.00 Mb                                      |
|  Simplification time:         23.32 s                                       |
|                                                                             |
============================[ Search Statistics ]==============================
| Conflicts |          ORIGINAL         |          LEARNT          | Progress |
|           |    Vars  Clauses Literals |    Limit  Clauses Lit/Cl |          |
===============================================================================
===============================================================================
restarts              : 1
conflicts             : 1              (0 /sec)
decisions             : 3              (0.00 % random) (0 /sec)
propagations          : 781            (33 /sec)
conflict literals     : 7              (0.00 % deleted)
Memory used           : 91.00 MB
CPU time              : 23.568 s

SATISFIABLE


Strategies: -b -x  

WARNING: for repeatability, setting FPU to use double precision
============================[ Problem Statistics ]=============================
|                                                                             |
|  Number of variables:           999                                         |
|  Number of clauses:          302292                                         |
|  Parse time:                   0.21 s                                       |
|  Eliminated clauses:           0.00 Mb                                      |
|  Simplification time:          0.32 s                                       |
|                                                                             |
============================[ Search Statistics ]==============================
| Conflicts |          ORIGINAL         |          LEARNT          | Progress |
|           |    Vars  Clauses Literals |    Limit  Clauses Lit/Cl |          |
===============================================================================
===============================================================================
restarts              : 1
conflicts             : 1              (2 /sec)
decisions             : 3              (0.00 % random) (6 /sec)
propagations          : 793            (1491 /sec)
conflict literals     : 4              (0.00 % deleted)
Memory used           : 77.00 MB
CPU time              : 0.532 s

SATISFIABLE


Strategies: -b -x -p  

WARNING: for repeatability, setting FPU to use double precision
============================[ Problem Statistics ]=============================
|                                                                             |
|  Number of variables:           999                                         |
|  Number of clauses:          628884                                         |
|  Parse time:                   0.46 s                                       |
|  Eliminated clauses:           0.00 Mb                                      |
|  Simplification time:         26.62 s                                       |
|                                                                             |
============================[ Search Statistics ]==============================
| Conflicts |          ORIGINAL         |          LEARNT          | Progress |
|           |    Vars  Clauses Literals |    Limit  Clauses Lit/Cl |          |
===============================================================================
===============================================================================
restarts              : 1
conflicts             : 1              (0 /sec)
decisions             : 3              (0.00 % random) (0 /sec)
propagations          : 781            (29 /sec)
conflict literals     : 7              (0.00 % deleted)
Memory used           : 142.00 MB
CPU time              : 27.076 s

SATISFIABLE


Strategies: -b -a  

WARNING: for repeatability, setting FPU to use double precision
============================[ Problem Statistics ]=============================
|                                                                             |
|  Number of variables:           999                                         |
|  Number of clauses:          956772                                         |
|  Parse time:                   0.86 s                                       |
|  Eliminated clauses:           0.00 Mb                                      |
|  Simplification time:          2.30 s                                       |
|                                                                             |
============================[ Search Statistics ]==============================
| Conflicts |          ORIGINAL         |          LEARNT          | Progress |
|           |    Vars  Clauses Literals |    Limit  Clauses Lit/Cl |          |
===============================================================================
===============================================================================
restarts              : 1
conflicts             : 1              (0 /sec)
decisions             : 3              (0.00 % random) (1 /sec)
propagations          : 793            (251 /sec)
conflict literals     : 4              (0.00 % deleted)
Memory used           : 287.00 MB
CPU time              : 3.16 s

SATISFIABLE


Strategies:  

WARNING: for repeatability, setting FPU to use double precision
============================[ Problem Statistics ]=============================
|                                                                             |
|  Number of variables:           999                                         |
|  Number of clauses:            9072                                         |
|  Parse time:                   0.00 s                                       |
|  Eliminated clauses:           0.00 Mb                                      |
|  Simplification time:          0.00 s                                       |
|                                                                             |
============================[ Search Statistics ]==============================
| Conflicts |          ORIGINAL         |          LEARNT          | Progress |
|           |    Vars  Clauses Literals |    Limit  Clauses Lit/Cl |          |
===============================================================================
===============================================================================
restarts              : 1
conflicts             : 1              (250 /sec)
decisions             : 10             (0.00 % random) (2500 /sec)
propagations          : 736            (184000 /sec)
conflict literals     : 1              (0.00 % deleted)
Memory used           : 22.00 MB
CPU time              : 0.004 s

SATISFIABLE


Strategies: -b  

WARNING: for repeatability, setting FPU to use double precision
============================[ Problem Statistics ]=============================
|                                                                             |
|  Number of variables:           999                                         |
|  Number of clauses:           11988                                         |
|  Parse time:                   0.00 s                                       |
|  Eliminated clauses:           0.00 Mb                                      |
|  Simplification time:          0.01 s                                       |
|                                                                             |
============================[ Search Statistics ]==============================
| Conflicts |          ORIGINAL         |          LEARNT          | Progress |
|           |    Vars  Clauses Literals |    Limit  Clauses Lit/Cl |          |
===============================================================================
===============================================================================
restarts              : 1
conflicts             : 1              (62 /sec)
decisions             : 3              (0.00 % random) (188 /sec)
propagations          : 793            (49562 /sec)
conflict literals     : 4              (0.00 % deleted)
Memory used           : 23.00 MB
CPU time              : 0.016 s

SATISFIABLE


